4 
5  39 54 
6  09 28 35 43 50 58 
7  05 13 20 28 35 43 50 58 
8  05 13 20 28 35 43 50 58 
9  05 20 35 50 
10  05 20 35 50 
11  05 20 35 50 
12  05 20 35 51 
13  06 21 36 51 
14  06 21 36 51 58 
15  06 14 21 29 36 44 51 59 
16  06 14 21 29 36 44 51 59 
17  06 14 21 29 36 44 51 59 
18  06 14 21 28 36 51 
19  05 20 35 50 
20  05 20 35 47 
21  02 17 32 47 
22  02 17 30 45 
23  01 16 
0 
